LAMMPS (3 Nov 2022)
OMP_NUM_THREADS environment is not set. Defaulting to 1 thread. (src/comm.cpp:98)
  using 1 OpenMP thread(s) per MPI task
# GCMC for CO2 molecular fluid, rigid/small dynamics
# Rigid CO2 TraPPE model
# [Potoff and J.I. Siepmann, Vapor-liquid equilibria of
# mixtures containing alkanes, carbon dioxide and
# nitrogen AIChE J., 47,1676-1682 (2001)].

# variables available on command line

variable        mu index -8.1
variable        disp index 0.5
variable        temp index 338.0
variable        lbox index 10.0
variable        spacing index 5.0

# global model settings

units           real
atom_style      full
boundary        p p p
pair_style      lj/cut/coul/long  14
pair_modify     mix arithmetic tail yes
kspace_style    ewald 0.0001
bond_style      harmonic
angle_style     harmonic

# box, start molecules on simple cubic lattice

lattice         sc ${spacing}
lattice         sc 5.0
Lattice spacing in x,y,z = 5 5 5
region          box block 0 ${lbox} 0 ${lbox} 0 ${lbox} units box
region          box block 0 10.0 0 ${lbox} 0 ${lbox} units box
region          box block 0 10.0 0 10.0 0 ${lbox} units box
region          box block 0 10.0 0 10.0 0 10.0 units box
create_box      2 box                                       bond/types 1                                angle/types 1                               extra/bond/per/atom 2                       extra/angle/per/atom 1                      extra/special/per/atom 2
Created orthogonal box = (0 0 0) to (10 10 10)
  1 by 1 by 1 MPI processor grid
molecule        co2mol CO2.txt
Read molecule template co2mol:
  1 molecules
  0 fragments
  3 atoms with max type 2
  2 bonds with max type 1
  1 angles with max type 1
  0 dihedrals with max type 0
  0 impropers with max type 0
create_atoms    0 box mol co2mol 464563 units box
Created 24 atoms
  using box units in orthogonal box = (0 0 0) to (10 10 10)
  create_atoms CPU = 0.001 seconds

# rigid CO2 TraPPE model

pair_coeff      1   1  0.053649   2.8
pair_coeff      2   2  0.156973   3.05
bond_coeff      1       0       1.16
angle_coeff     1       0       180

# masses

mass 1 12.0107
mass 2 15.9994

# MD settings

group           co2 type 1 2
24 atoms in group co2
neighbor        2.0 bin
neigh_modify    every 1 delay 10 check yes
velocity        all create ${temp} 54654
velocity        all create 338.0 54654
timestep        1.0

# rigid constraints with thermostat

fix             myrigid co2 rigid/small molecule mol co2mol
  create bodies CPU = 0.000 seconds
  8 rigid bodies with 24 atoms
  1.16 = max distance from body owner to body atom

# dynamically update  fix rigid/nvt/small temperature ndof
#fix_modify      myrigid dynamic/dof yes

# gcmc

variable        tfac equal 5.0/3.0 # (3 trans + 2 rot)/(3 trans)
fix             mygcmc co2 gcmc 1 0 10 0 54341 ${temp} ${mu} ${disp} mol                 co2mol tfac_insert ${tfac} group co2
fix             mygcmc co2 gcmc 1 0 10 0 54341 338.0 ${mu} ${disp} mol                 co2mol tfac_insert ${tfac} group co2
fix             mygcmc co2 gcmc 1 0 10 0 54341 338.0 -8.1 ${disp} mol                 co2mol tfac_insert ${tfac} group co2
fix             mygcmc co2 gcmc 1 0 10 0 54341 338.0 -8.1 0.5 mol                 co2mol tfac_insert ${tfac} group co2
fix             mygcmc co2 gcmc 1 0 10 0 54341 338.0 -8.1 0.5 mol                 co2mol tfac_insert 1.66666666666667 group co2

# atom counts

variable        carbon atom "type==1"
variable        oxygen atom "type==2"
group           carbon dynamic co2 var carbon
dynamic group carbon defined
group           oxygen dynamic co2 var oxygen
dynamic group oxygen defined
variable        nC equal count(carbon)
variable        nO equal count(oxygen)

# output

variable        tacc equal f_mygcmc[2]/(f_mygcmc[1]+0.1)
variable        iacc equal f_mygcmc[4]/(f_mygcmc[3]+0.1)
variable        dacc equal f_mygcmc[6]/(f_mygcmc[5]+0.1)
variable        racc equal f_mygcmc[8]/(f_mygcmc[7]+0.1)

# dynamically update default temperature ndof
compute_modify  thermo_temp dynamic/dof yes

thermo_style    custom step temp press pe ke density atoms v_iacc v_dacc v_tacc v_racc v_nC v_nO
thermo          100

# run
dump            1 all custom 100 test.lammpstrj id type xu yu zu vx vy vz
run             20000
Ewald initialization ...
  using 12-bit tables for long-range coulomb (src/kspace.cpp:342)
  G vector (1/distance) = 0.16463644
  estimated absolute RMS force accuracy = 0.033206372
  estimated relative force accuracy = 0.0001
  KSpace vectors: actual max1d max3d = 16 2 62
                  kxmax kymax kzmax  = 2 2 2
Generated 1 of 1 mixed pair_coeff terms from arithmetic mixing rule
WARNING: Fix gcmc using full_energy option (src/MC/fix_gcmc.cpp:491)
0 atoms in group FixGCMC:gcmc_exclusion_group:mygcmc
0 atoms in group FixGCMC:rotation_gas_atoms:mygcmc
WARNING: Neighbor exclusions used with KSpace solver may give inconsistent Coulombic energies (src/neighbor.cpp:637)
Neighbor list info ...
  update: every = 1 steps, delay = 10 steps, check = yes
  max neighbors/atom: 2000, page size: 100000
  master list distance cutoff = 16
  ghost atom cutoff = 16
  binsize = 8, bins = 2 2 2
  1 neighbor lists, perpetual/occasional/extra = 1 0 0
  (1) pair lj/cut/coul/long, perpetual
      attributes: half, newton on
      pair build: half/bin/newton
      stencil: half/bin/3d
      bin: standard
Per MPI rank memory allocation (min/avg/max) = 17.48 | 17.48 | 17.48 Mbytes
   Step          Temp          Press          PotEng         KinEng        Density        Atoms        v_iacc         v_dacc         v_tacc         v_racc          v_nC           v_nO     
         0   364.27579      4238.8631     -9.6809388      13.391989      0.5846359             24   0              0              0              0              8              16           
       100   384.3608      -882.38442     -11.088837      14.130381      0.5846359             24   0              0              0.93368063     0.93594093     8              16           
       200   347.87275      659.264       -8.0977031      12.788958      0.5846359             24   0              0              0.86061088     0.94462868     8              16           
       300   250.07349      741.47946     -7.4995414      9.1935327      0.5846359             24   0              0              0.79817947     0.93253059     8              16           
       400   291.09951     -266.91011     -8.1987135      10.701786      0.5846359             24   0              0              0.76524061     0.92640397     8              16           
       500   265.01783      233.90295     -6.9486726      9.7429365      0.5846359             24   0              0              0.76419658     0.92634148     8              16           
       600   385.75486     -548.23167     -11.097703      14.181631      0.5846359             24   0              0              0.76219818     0.9236588      8              16           
       700   415.24097      443.87162     -11.242957      15.265638      0.5846359             24   0              0              0.7542132      0.92490973     8              16           
       800   410.30215      277.57376     -11.803443      15.084071      0.5846359             24   0              0              0.73619017     0.92221031     8              16           
       900   418.99272     -515.48891     -11.865638      15.403565      0.5846359             24   0              0              0.7379622      0.92411437     8              16           
      1000   393.23541     -598.43584     -11.657637      14.456641      0.5846359             24   0              0              0.74452964     0.92505644     8              16           
      1100   315.73736      1477.0263     -7.9565555      11.607555      0.5846359             24   0              0              0.73920371     0.92355119     8              16           
      1200   407.13884      191.63251     -12.907643      14.967777      0.5846359             24   0              0              0.72895056     0.91663738     8              16           
      1300   334.76649      1436.9975     -6.949864       12.307129      0.5846359             24   0              0              0.72734542     0.91671669     8              16           
      1400   364.24243      27.50434      -9.256868       13.390763      0.5846359             24   0              0              0.72815881     0.9160229      8              16           
      1500   373.02757     -248.63491     -10.788444      13.713734      0.5846359             24   0              0              0.73071827     0.91749578     8              16           
      1600   284.80785      965.37129     -9.1764285      10.470483      0.5846359             24   0              0              0.72889592     0.91686266     8              16           
      1700   310.15991      327.39819     -11.649385      11.402509      0.5846359             24   0              0              0.72334529     0.91478594     8              16           
      1800   453.83746     -394.20912     -14.627858      16.684574      0.5846359             24   0              0              0.71944541     0.91455281     8              16           
      1900   408.82434      136.23614     -13.769419      15.029742      0.5846359             24   0              0              0.71367172     0.91280241     8              16           
      2000   378.56503      946.18148     -9.8498269      13.917309      0.5846359             24   0              0              0.71160483     0.91253317     8              16           
      2100   420.64162     -233.90856     -12.735547      15.464184      0.5846359             24   0              0              0.71385406     0.91271005     8              16           
      2200   374.73851     -155.28401     -11.13091       13.776633      0.5846359             24   0              0              0.71574249     0.9127877      8              16           
      2300   384.21727      270.03461     -9.726976       14.125104      0.5846359             24   0              0              0.7194452      0.91367922     8              16           
      2400   419.96005     -121.13102     -12.39211       15.439127      0.5846359             24   0              0              0.72141953     0.91378125     8              16           
      2500   405.08164     -177.94866     -11.506107      14.892147      0.5846359             24   0              0              0.72109467     0.91534        8              16           
      2600   399.21174     -121.76156     -11.655889      14.67635       0.5846359             24   0              0              0.72064064     0.91609189     8              16           
      2700   373.77934      640.01628     -9.5512533      13.741371      0.5846359             24   0              0              0.72110484     0.91585491     8              16           
      2800   435.04813     -245.6712      -11.56669       15.993815      0.5846359             24   0              0              0.72197403     0.91667793     8              16           
      2900   404.46317     -357.08816     -12.161991      14.86941       0.5846359             24   0              0              0.72313578     0.91556607     8              16           
      3000   427.51317     -400.73189     -13.113756      15.716805      0.5846359             24   0              0              0.7227787      0.91576941     8              16           
      3100   420.3096       788.73088     -11.365385      15.451978      0.5846359             24   0              0              0.72018209     0.91468698     8              16           
      3200   459.86225     -136.37472     -14.130721      16.906065      0.5846359             24   0              0              0.71678069     0.91440063     8              16           
      3300   440.88401     -70.495586     -11.769436      16.208362      0.5846359             24   0              0              0.71584096     0.91471384     8              16           
      3400   417.20647     -311.84623     -11.27535       15.337897      0.5846359             24   0              0              0.71770476     0.91536981     8              16           
      3500   302.75987      1809.3452     -6.3970787      11.130459      0.5846359             24   0              0              0.71661667     0.91459283     8              16           
      3600   396.6574       277.51214     -10.456691      14.582444      0.5846359             24   0              0              0.7159051      0.91472233     8              16           
      3700   334.03582      485.57439     -8.6059843      12.280267      0.5846359             24   0              0              0.71569143     0.91457335     8              16           
      3800   388.93284      17.835089     -9.390364       14.298464      0.5846359             24   0              0              0.71627234     0.91496475     8              16           
      3900   369.53342      961.15456     -10.072366      13.585277      0.5846359             24   0              0              0.71579445     0.91387313     8              16           
      4000   408.76186      688.05334     -11.54423       15.027445      0.5846359             24   0              0              0.71335311     0.91273907     8              16           
      4100   430.87544      483.68904     -10.661273      15.840414      0.5846359             24   0              0              0.71182952     0.9121821      8              16           
      4200   469.52797     -344.52094     -13.016705      17.261409      0.5846359             24   0              0              0.712037       0.91225047     8              16           
      4300   457.72623     -349.01524     -12.17635       16.827538      0.5846359             24   0              0              0.7115772      0.91239637     8              16           
      4400   407.30376      744.43783     -10.469955      14.97384       0.5846359             24   0              0              0.71063197     0.91229649     8              16           
      4500   443.72855      138.46214     -11.865943      16.312936      0.5846359             24   0              0              0.70960111     0.91230159     8              16           
      4600   429.37107      541.88152     -11.548732      15.785108      0.5846359             24   0              0              0.70823242     0.91226453     8              16           
      4700   487.66443     -388.15283     -13.294075      17.928165      0.5846359             24   0              0              0.70748924     0.91226336     8              16           
      4800   438.50487     -219.62837     -11.202053      16.120897      0.5846359             24   0              0              0.70744209     0.91268799     8              16           
      4900   382.63301      892.18312     -10.684036      14.066861      0.5846359             24   0              0              0.70712016     0.91248402     8              16           
      5000   498.55432      691.15075     -12.01644       18.328514      0.5846359             24   0              0              0.70535539     0.91182112     8              16           
      5100   491.58757      883.82105     -12.215409      18.072393      0.5846359             24   0              0              0.70453646     0.91141119     8              16           
      5200   502.14554     -845.69794     -14.010471      18.460539      0.5846359             24   0              0              0.70518117     0.9117261      8              16           
      5300   495.26826      369.51514     -11.475699      18.207707      0.5846359             24   0              0              0.70618329     0.91200139     8              16           
      5400   439.8264       326.3078      -10.166126      16.169481      0.5846359             24   0              0              0.70619306     0.91225325     8              16           
      5500   482.87752     -96.315757     -10.819639      17.752183      0.5846359             24   0              0              0.70719499     0.91278038     8              16           
      5600   479.81221     -148.105       -12.110381      17.639492      0.5846359             24   0              0              0.70762339     0.91302777     8              16           
      5700   431.70129     -428.16067     -9.8715648      15.870774      0.5846359             24   0              0              0.70771193     0.9132664      8              16           
      5800   418.14719     -313.20187     -9.598705       15.372481      0.5846359             24   0              0              0.7089664      0.91386319     8              16           
      5900   450.56938     -362.52211     -9.894889       16.564428      0.5846359             24   0              0              0.71040025     0.91458171     8              16           
      6000   447.72008     -462.99433     -10.163784      16.459678      0.5846359             24   0              0              0.71194096     0.91500713     8              16           
      6100   460.60895     -560.05111     -10.925358      16.933516      0.5846359             24   0              0              0.71293214     0.91551956     8              16           
      6200   447.90214      133.90469     -10.613903      16.466371      0.5846359             24   0              0              0.71301431     0.91558607     8              16           
      6300   323.48383      743.84079     -10.407315      11.892341      0.5846359             24   0              0              0.71366348     0.91517907     8              16           
      6400   472.86903     -11.910157     -12.042268      17.384237      0.5846359             24   0              0              0.71324568     0.91401975     8              16           
      6500   434.20526      532.73759     -9.0210228      15.962829      0.5846359             24   0              0              0.71239846     0.91364294     8              16           
      6600   427.19449     -423.92107     -9.2990126      15.705089      0.5846359             24   0              0              0.71331688     0.91421432     8              16           
      6700   455.19343      518.51022     -10.080747      16.734424      0.5846359             24   0              0              0.71447493     0.91458321     8              16           
      6800   484.74027      1034.2767     -10.761257      17.820664      0.5846359             24   0              0              0.71407824     0.91493671     8              16           
      6900   558.11169      265.27268     -13.804835      20.518041      0.5846359             24   0              0              0.71208674     0.91431461     8              16           
      7000   498.77061      834.05432     -8.6977059      18.336466      0.5846359             24   0              0              0.71146955     0.91386257     8              16           
      7100   450.11869      1483.1554     -7.3811063      16.547859      0.5846359             24   0              0              0.71066561     0.91336369     8              16           
      7200   529.81066      337.93691     -9.9755945      19.477601      0.5846359             24   0              0              0.71084741     0.91334842     8              16           
      7300   501.34439      947.30888     -10.580477      18.431086      0.5846359             24   0              0              0.71046753     0.91344082     8              16           
      7400   513.90949     -424.76427     -11.713894      18.893021      0.5846359             24   0              0              0.71065784     0.91355437     8              16           
      7500   439.7602      -214.51714     -8.5412074      16.167047      0.5846359             24   0              0              0.71197575     0.91381001     8              16           
      7600   487.45123     -622.11639     -9.699132       17.920327      0.5846359             24   0              0              0.71375853     0.91449122     8              16           
      7700   457.84612     -39.227553     -8.721717       16.831945      0.5846359             24   0              0              0.71573655     0.91518838     8              16           
      7800   458.72036      431.97132     -10.157249      16.864085      0.5846359             24   0              0              0.7166708      0.91525537     8              16           
      7900   549.15898     -553.46108     -13.102243      20.188909      0.5846359             24   0              0              0.71702414     0.91572388     8              16           
      8000   525.89483      638.61556     -11.067472      19.333642      0.5846359             24   0              0              0.71676468     0.91537847     8              16           
      8100   535.68782      36.91426      -11.127598      19.693665      0.5846359             24   0              0              0.71613156     0.91560642     8              16           
      8200   528.89848     -302.00991     -10.648141      19.444066      0.5846359             24   0              0              0.71698903     0.91599023     8              16           
      8300   514.03733      151.67335     -10.820662      18.897721      0.5846359             24   0              0              0.71638569     0.91606262     8              16           
      8400   550.76624     -223.86022     -12.091593      20.247998      0.5846359             24   0              0              0.71603801     0.9162348      8              16           
      8500   517.10449      1212.9397     -8.518242       19.01048       0.5846359             24   0              0              0.7162859      0.9162655      8              16           
      8600   563.51893     -298.76894     -11.972807      20.716829      0.5846359             24   0              0              0.71597385     0.91635361     8              16           
      8700   575.23939      23.692781     -12.307007      21.147712      0.5846359             24   0              0              0.71587254     0.91636873     8              16           
      8800   550.68062     -130.59472     -11.689271      20.24485       0.5846359             24   0              0              0.71546323     0.91612548     8              16           
      8900   495.45764      1610.4535     -8.7323209      18.21467       0.5846359             24   0              0              0.71522202     0.91593591     8              16           
      9000   505.75272      1089.1301     -10.412661      18.593151      0.5846359             24   0              0              0.71379947     0.91541376     8              16           
      9100   579.67333      708.86973     -11.695001      21.310718      0.5846359             24   0              0              0.71301638     0.9151491      8              16           
      9200   564.11859      383.24046     -12.466418      20.738874      0.5846359             24   0              0              0.71217318     0.91440898     8              16           
      9300   483.01593      1036.3845     -9.1978669      17.757271      0.5846359             24   0              0              0.71109339     0.91449272     8              16           
      9400   545.24461      582.02315     -10.681365      20.045004      0.5846359             24   0              0              0.71082346     0.91452887     8              16           
      9500   512.69442      277.48612     -10.252734      18.848351      0.5846359             24   0              0              0.71110962     0.91424456     8              16           
      9600   474.43384      416.09778     -9.4505337      17.441765      0.5846359             24   0              0              0.7115174      0.91449087     8              16           
      9700   484.28246      669.80238     -8.4252269      17.803833      0.5846359             24   0              0              0.7116517      0.91433934     8              16           
      9800   542.88375      769.21188     -10.140844      19.958211      0.5846359             24   0              0              0.71112368     0.91421602     8              16           
      9900   536.94486      742.21976     -9.4782634      19.739878      0.5846359             24   0              0              0.71058638     0.91391281     8              16           
     10000   577.69332     -19.468904     -10.953095      21.237927      0.5846359             24   0              0              0.71079365     0.91378712     8              16           
     10100   545.92517      178.9149      -9.6731465      20.070024      0.5846359             24   0              0              0.71044642     0.91368896     8              16           
     10200   592.18849     -79.733465     -12.015844      21.770817      0.5846359             24   0              0              0.71050279     0.91370898     8              16           
     10300   601.00097      1369.9773     -11.285977      22.094793      0.5846359             24   0              0              0.70944355     0.91366953     8              16           
     10400   464.51118      2100.5484     -7.7718001      17.076975      0.5846359             24   0              0              0.70780667     0.91304004     8              16           
     10500   568.80859      753.48428     -9.9671215      20.911294      0.5846359             24   0              0              0.70704691     0.91257439     8              16           
     10600   546.3831       620.2108      -8.1130768      20.086859      0.5846359             24   0              0              0.70664199     0.91250253     8              16           
     10700   563.04666      1162.5938     -9.4489853      20.699467      0.5846359             24   0              0              0.70659892     0.91218866     8              16           
     10800   584.91878     -161.83311     -11.584908      21.503559      0.5846359             24   0              0              0.7068554      0.91193924     8              16           
     10900   575.61816      1196.3046     -9.6430017      21.161637      0.5846359             24   0              0              0.70662655     0.9115008      8              16           
     11000   541.51551      82.93688      -9.7821154      19.90791       0.5846359             24   0              0              0.70645519     0.91145487     8              16           
     11100   552.65348      303.41832     -8.3126369      20.317379      0.5846359             24   0              0              0.70675024     0.91171631     8              16           
     11200   570.48434      739.22483     -11.079992      20.9729        0.5846359             24   0              0              0.70638089     0.91159722     8              16           
     11300   573.42027      1239.115      -9.9775008      21.080835      0.5846359             24   0              0              0.70538855     0.91135263     8              16           
     11400   584.38043      787.57339     -9.4479023      21.483767      0.5846359             24   0              0              0.70453865     0.91104469     8              16           
     11500   608.90068     -196.10207     -10.465425      22.385213      0.5846359             24   0              0              0.70476085     0.91119896     8              16           
     11600   514.22433      1504.9597     -5.8560215      18.904595      0.5846359             24   0              0              0.70529708     0.91117019     8              16           
     11700   503.61875      1037.2622     -7.4452958      18.514699      0.5846359             24   0              0              0.70487206     0.91074054     8              16           
     11800   612.33062     -496.02161     -10.743217      22.511309      0.5846359             24   0              0              0.7052201      0.910904       8              16           
     11900   557.30641      139.08514     -9.0549766      20.488436      0.5846359             24   0              0              0.70582588     0.91104936     8              16           
     12000   486.90191      1114.5241     -6.297573       17.900133      0.5846359             24   0              0              0.70579699     0.91103467     8              16           
     12100   591.97154     -163.55774     -11.042946      21.762841      0.5846359             24   0              0              0.70595595     0.91103347     8              16           
     12200   537.44792      1675.8579     -8.0679581      19.758372      0.5846359             24   0              0              0.70531752     0.91058242     8              16           
     12300   546.13324      355.26162     -8.0653552      20.077673      0.5846359             24   0              0              0.70478026     0.91055849     8              16           
     12400   532.85786      343.01702     -9.1751663      19.589626      0.5846359             24   0              0              0.70533327     0.91068457     8              16           
     12500   581.8345       98.564551     -9.9264883      21.39017       0.5846359             24   0              0              0.70524083     0.91061074     8              16           
     12600   637.74766     -454.33718     -11.126003      23.445724      0.5846359             24   0              0              0.70628904     0.91088555     8              16           
     12700   556.34728      385.13566     -8.782396       20.453175      0.5846359             24   0              0              0.7066813      0.91108167     8              16           
     12800   655.4128      -142.29658     -12.111004      24.095153      0.5846359             24   0              0              0.70662035     0.91115447     8              16           
     12900   585.3277       1256.9561     -8.9886849      21.518592      0.5846359             24   0              0              0.70614953     0.9110701      8              16           
     13000   620.4348      -69.616677     -13.138682      22.809246      0.5846359             24   0              0              0.70577987     0.9109139      8              16           
     13100   649.93649      344.30029     -12.862335      23.893826      0.5846359             24   0              0              0.7052587      0.9106851      8              16           
     13200   564.72579      961.11292     -8.6319101      20.761197      0.5846359             24   0              0              0.70470496     0.91069182     8              16           
     13300   650.62855      460.01992     -11.437441      23.919268      0.5846359             24   0              0              0.70448351     0.91059217     8              16           
     13400   519.43263      2031.876      -9.8244131      19.09607       0.5846359             24   0              0              0.70366559     0.91014854     8              16           
     13500   592.66422      2123.6276     -9.662901       21.788307      0.5846359             24   0              0              0.70295413     0.91003285     8              16           
     13600   574.00053      1192.775      -9.6689022      21.102167      0.5846359             24   0              0              0.70295425     0.90993783     8              16           
     13700   614.72349     -531.6943      -11.458937      22.599279      0.5846359             24   0              0              0.70349439     0.91025415     8              16           
     13800   526.74346     -6.4357085     -11.416436      19.364841      0.5846359             24   0              0              0.70368335     0.91037488     8              16           
     13900   539.26111      544.96346     -9.1502916      19.825031      0.5846359             24   0              0              0.7040135      0.91047951     8              16           
     14000   578.10898     -11.314082     -11.239487      21.253208      0.5846359             24   0              0              0.70366246     0.91004882     8              16           
     14100   571.27903      1281.4858     -9.9065043      21.002116      0.5846359             24   0              0              0.70332316     0.90981642     8              16           
     14200   562.10324      839.77405     -10.379761      20.664783      0.5846359             24   0              0              0.70308766     0.909783       8              16           
     14300   576.14336      704.75504     -11.556042      21.180945      0.5846359             24   0              0              0.70205223     0.90971348     8              16           
     14400   656.67349      150.61466     -12.803691      24.1415        0.5846359             24   0              0              0.70145402     0.90930039     8              16           
     14500   606.89392     -166.02278     -11.982638      22.311438      0.5846359             24   0              0              0.70130078     0.90934149     8              16           
     14600   522.51609      1478.7002     -7.0227726      19.209428      0.5846359             24   0              0              0.70118661     0.9094243      8              16           
     14700   575.7487       125.62226     -9.6360975      21.166436      0.5846359             24   0              0              0.70122628     0.90961104     8              16           
     14800   606.06694      119.71769     -11.048092      22.281035      0.5846359             24   0              0              0.70078912     0.90943696     8              16           
     14900   510.70364      2303.8021     -4.8589499      18.775163      0.5846359             24   0              0              0.70068299     0.90926035     8              16           
     15000   599.40097     -165.02585     -9.554961       22.035972      0.5846359             24   0              0              0.70125789     0.90949286     8              16           
     15100   612.81532     -150.06212     -9.6585667      22.529128      0.5846359             24   0              0              0.70179627     0.90974022     8              16           
     15200   599.34523      301.48884     -9.2011812      22.033923      0.5846359             24   0              0              0.7024881      0.90990197     8              16           
     15300   642.2685      -58.529663     -10.043698      23.611925      0.5846359             24   0              0              0.70266002     0.9099367      8              16           
     15400   651.22401      370.38142     -9.4203675      23.941159      0.5846359             24   0              0              0.70333081     0.91015401     8              16           
     15500   653.28357     -348.9834      -10.904197      24.016875      0.5846359             24   0              0              0.70356345     0.91023823     8              16           
     15600   657.76364     -301.72491     -10.38846       24.181578      0.5846359             24   0              0              0.70405478     0.91044755     8              16           
     15700   633.34284     -335.2612      -9.1292424      23.283788      0.5846359             24   0              0              0.70479855     0.91062772     8              16           
     15800   656.47164      358.4546      -8.7917208      24.13408       0.5846359             24   0              0              0.70538161     0.91081601     8              16           
     15900   758.09632     -695.34297     -12.318488      27.870141      0.5846359             24   0              0              0.70563456     0.91094873     8              16           
     16000   696.80314     -10.655386     -11.077257      25.6168        0.5846359             24   0              0              0.70621303     0.91111746     8              16           
     16100   615.46501      409.42598     -8.362901       22.62654       0.5846359             24   0              0              0.70640572     0.91118271     8              16           
     16200   696.6214       121.51921     -10.496051      25.610118      0.5846359             24   0              0              0.70654588     0.91134106     8              16           
     16300   683.40438     -84.154607     -10.275752      25.124217      0.5846359             24   0              0              0.70724212     0.91171534     8              16           
     16400   677.17509     -33.804447     -10.607531      24.895207      0.5846359             24   0              0              0.70776588     0.91197805     8              16           
     16500   681.82738      739.34272     -11.379634      25.066241      0.5846359             24   0              0              0.7080521      0.9120468      8              16           
     16600   654.94967      677.20169     -10.639286      24.078127      0.5846359             24   0              0              0.70771114     0.91197399     8              16           
     16700   704.21458      280.82475     -10.655368      25.889269      0.5846359             24   0              0              0.70769423     0.91185076     8              16           
     16800   667.31393      563.88067     -10.104497      24.532678      0.5846359             24   0              0              0.70790494     0.9118866      8              16           
     16900   692.00603      164.09877     -9.1414508      25.440442      0.5846359             24   0              0              0.70800144     0.91179003     8              16           
     17000   675.34168      1275.287      -8.1103447      24.827805      0.5846359             24   0              0              0.70768857     0.91168041     8              16           
     17100   711.36122      2097.4972     -7.8809834      26.152003      0.5846359             24   0              0              0.70749859     0.91166132     8              16           
     17200   691.06642      1671.0966     -7.7018146      25.405899      0.5846359             24   0              0              0.70733954     0.91142838     8              16           
     17300   692.65007      948.52301     -7.9024892      25.464119      0.5846359             24   0              0              0.70787332     0.91151645     8              16           
     17400   688.3857       216.95636     -8.8950241      25.307347      0.5846359             24   0              0              0.70815705     0.91172246     8              16           
     17500   722.88185      327.05127     -10.158418      26.57554       0.5846359             24   0              0              0.70792695     0.911764       8              16           
     17600   768.41271      585.42049     -10.789788      28.249405      0.5846359             24   0              0              0.7069489      0.9115283      8              16           
     17700   714.77539      1509.6331     -7.1178929      26.277519      0.5846359             24   0              0              0.70683878     0.91148692     8              16           
     17800   660.0791       942.24863     -11.381382      24.266702      0.5846359             24   0              0              0.70651495     0.91130133     8              16           
     17900   827.25893      831.60027     -10.341538      30.412788      0.5846359             24   0              0              0.70582104     0.91097043     8              16           
     18000   748.74313      650.99409     -8.9337583      27.526286      0.5846359             24   0              0              0.70563429     0.91099021     8              16           
     18100   829.1129      -324.38686     -12.364618      30.480946      0.5846359             24   0              0              0.70543732     0.9111447      8              16           
     18200   840.6305       1757.4412     -8.1823496      30.904371      0.5846359             24   0              0              0.70545133     0.91110011     8              16           
     18300   890.02006     -139.53382     -12.371232      32.720096      0.5846359             24   0              0              0.70574771     0.9111909      8              16           
     18400   750.86458      2570.064      -6.4854263      27.604278      0.5846359             24   0              0              0.70578299     0.91121457     8              16           
     18500   863.84988     -121.31737     -12.144828      31.757993      0.5846359             24   0              0              0.705399       0.91126922     8              16           
     18600   797.70969      455.57405     -8.730543       29.32646       0.5846359             24   0              0              0.7056118      0.91143493     8              16           
     18700   874.00868     -16.870359     -10.727757      32.131464      0.5846359             24   0              0              0.70588853     0.91150421     8              16           
     18800   780.42702      1540.9472     -6.0789272      28.691091      0.5846359             24   0              0              0.70584401     0.91123554     8              16           
     18900   876.37016     -35.387301     -11.256792      32.21828       0.5846359             24   0              0              0.70587039     0.91138943     8              16           
     19000   887.14136      250.66679     -10.499402      32.614265      0.5846359             24   0              0              0.70638116     0.91155744     8              16           
     19100   896.60783      207.00361     -10.604824      32.962284      0.5846359             24   0              0              0.70620222     0.91155207     8              16           
     19200   833.3631       1188.8047     -9.0302747      30.637197      0.5846359             24   0              0              0.70571418     0.91138698     8              16           
     19300   910.06676      723.13217     -9.7125872      33.457079      0.5846359             24   0              0              0.70549599     0.91118677     8              16           
     19400   895.70139      134.35913     -10.45593       32.92896       0.5846359             24   0              0              0.70586887     0.91145091     8              16           
     19500   830.09215      1873.4633     -5.4573503      30.516947      0.5846359             24   0              0              0.70598857     0.91127791     8              16           
     19600   896.40483      947.64316     -7.0977643      32.954821      0.5846359             24   0              0              0.7061455      0.91134569     8              16           
     19700   905.69778      159.10472     -10.005493      33.296461      0.5846359             24   0              0              0.70600841     0.91128637     8              16           
     19800   892.12096      743.34341     -6.9402737      32.797332      0.5846359             24   0              0              0.70656709     0.91152734     8              16           
     19900   894.26715      211.5875      -7.8336211      32.876233      0.5846359             24   0              0              0.70690712     0.91165901     8              16           
     20000   820.6873       1618.0942     -5.9832998      30.171193      0.5846359             24   0              0              0.70711218     0.91178171     8              16           
Loop time of 96.8815 on 1 procs for 20000 steps with 24 atoms

Performance: 17.836 ns/day, 1.346 hours/ns, 206.438 timesteps/s, 4.955 katom-step/s
99.6% CPU use with 1 MPI tasks x 1 OpenMP threads

MPI task timing breakdown:
Section |  min time  |  avg time  |  max time  |%varavg| %total
---------------------------------------------------------------
Pair    | 1.4038     | 1.4038     | 1.4038     |   0.0 |  1.45
Bond    | 0.014886   | 0.014886   | 0.014886   |   0.0 |  0.02
Kspace  | 0.14196    | 0.14196    | 0.14196    |   0.0 |  0.15
Neigh   | 4.44       | 4.44       | 4.44       |   0.0 |  4.58
Comm    | 0.47124    | 0.47124    | 0.47124    |   0.0 |  0.49
Output  | 0.022725   | 0.022725   | 0.022725   |   0.0 |  0.02
Modify  | 90.349     | 90.349     | 90.349     |   0.0 | 93.26
Other   |            | 0.03822    |            |       |  0.04

Nlocal:             24 ave          24 max          24 min
Histogram: 1 0 0 0 0 0 0 0 0 0
Nghost:           1768 ave        1768 max        1768 min
Histogram: 1 0 0 0 0 0 0 0 0 0
Neighs:           4960 ave        4960 max        4960 min
Histogram: 1 0 0 0 0 0 0 0 0 0

Total # of neighbors = 4960
Ave neighs/atom = 206.66667
Ave special neighs/atom = 2
Neighbor list builds = 240000
Dangerous builds = 0
undump          1
Total wall time: 0:01:36
